NAME          ClpDefau
ROWS
 N  OBJROW
 L  R_248_0
 L  R_248_1
 L  R_248_2
 L  R_248_3
 L  R_248_4
 L  R_248_5
 L  R_248_6
 L  R_248_7
COLUMNS
    x_0       OBJROW     -8.           R_248_1   93.         
    x_0       R_248_3   48.            R_248_4   57.         
    x_0       R_248_5   5.             R_248_7   41.         
    x_1       OBJROW     -12.          R_248_1   68.         
    x_1       R_248_2   23.            R_248_3   4.          
    x_1       R_248_4   23.            R_248_5   66.         
    x_1       R_248_6   66.            R_248_7   24.         
    x_2       OBJROW     -11.          R_248_1   54.         
    x_2       R_248_2   98.            R_248_3   76.         
    x_2       R_248_4   58.            R_248_5   97.         
    x_2       R_248_6   95.            R_248_7   68.         
    x_3       OBJROW     -47.          R_248_0   36.         
    x_3       R_248_2   46.            R_248_3   59.         
    x_3       R_248_5   73.            R_248_6   72.         
    x_3       R_248_7   63.         
    x_4       OBJROW     -22.          R_248_0   42.         
    x_4       R_248_4   99.            R_248_6   91.         
    x_5       OBJROW     -95.          R_248_0   65.         
    x_5       R_248_1   76.            R_248_2   94.         
    x_5       R_248_3   66.            R_248_4   88.         
    x_5       R_248_5   10.            R_248_6   44.         
    x_5       R_248_7   25.         
    x_6       OBJROW     -86.          R_248_1   74.         
    x_6       R_248_2   35.            R_248_3   88.         
    x_6       R_248_5   67.            R_248_6   35.         
    x_6       R_248_7   27.         
    x_7       OBJROW     -40.          R_248_1   92.         
    x_7       R_248_2   8.             R_248_3   23.         
    x_7       R_248_4   4.             R_248_5   9.          
    x_7       R_248_6   94.         
    x_8       OBJROW     -33.          R_248_0   17.         
    x_8       R_248_2   24.            R_248_3   1.          
    x_8       R_248_4   6.             R_248_5   32.         
    x_8       R_248_6   5.             R_248_7   79.         
    x_9       OBJROW     -78.          R_248_0   96.         
    x_9       R_248_1   44.            R_248_2   40.         
    x_9       R_248_3   99.            R_248_4   6.          
    x_9       R_248_6   80.            R_248_7   61.         
    x_10      OBJROW     -28.          R_248_1   88.         
    x_10      R_248_2   14.            R_248_3   17.         
    x_10      R_248_4   100.           R_248_5   66.         
    x_10      R_248_6   44.            R_248_7   78.         
    x_11      OBJROW     -78.          R_248_1   90.         
    x_11      R_248_2   18.            R_248_3   33.         
    x_11      R_248_4   21.            R_248_5   59.         
    x_11      R_248_6   66.         
    x_12      OBJROW     -5.           R_248_0   5.          
    x_12      R_248_2   57.            R_248_3   11.         
    x_12      R_248_4   80.            R_248_5   80.         
    x_12      R_248_6   33.            R_248_7   36.         
    x_13      OBJROW     -75.          R_248_0   1.          
    x_13      R_248_1   50.            R_248_2   15.         
    x_13      R_248_3   12.            R_248_4   13.         
    x_13      R_248_5   97.            R_248_6   28.         
    x_13      R_248_7   86.         
    x_14      OBJROW     -88.          R_248_0   40.         
    x_14      R_248_1   49.            R_248_2   98.         
    x_14      R_248_4   56.            R_248_5   3.          
    x_14      R_248_6   7.          
    x_15      OBJROW     -21.          R_248_1   13.         
    x_15      R_248_2   62.            R_248_3   67.         
    x_15      R_248_5   47.            R_248_6   48.         
    x_15      R_248_7   88.         
RHS
    RHS       R_248_0   582.           R_248_1   263.        
    RHS       R_248_2   267.           R_248_3   473.        
    RHS       R_248_4   363.           R_248_5   848.        
    RHS       R_248_6   176.           R_248_7   622.        
BOUNDS
 UI BOUND     x_0       100.        
 UI BOUND     x_1       100.        
 UI BOUND     x_2       100.        
 UI BOUND     x_3       100.        
 UI BOUND     x_4       100.        
 UI BOUND     x_5       100.        
 UI BOUND     x_6       100.        
 UI BOUND     x_7       100.        
 UI BOUND     x_8       100.        
 UI BOUND     x_9       100.        
 UI BOUND     x_10      100.        
 UI BOUND     x_11      100.        
 UI BOUND     x_12      100.        
 UI BOUND     x_13      100.        
 UI BOUND     x_14      100.        
 UI BOUND     x_15      100.        
ENDATA
